\ LP format - for model browsing. Use MPS format to capture full model detail.
Minimize
  C
Subject To
 inicio_maquina(m1,t1): f(1,0) = 1
 inicio_maquina(m2,t1): x(1,2,0) + x(2,2,0) + x(3,2,0) + f(2,0) = 1
 inicio_maquina(m3,t1): f(3,0) = 1
 fluxo_maquina(1,1): f(1,0) - f(1,1) = 0
 fluxo_maquina(1,2): f(1,1) - f(1,2) = 0
 fluxo_maquina(1,3): f(1,2) - f(1,3) = 0
 fluxo_maquina(1,4): f(1,3) - f(1,4) - x(3,1,4) = 0
 fluxo_maquina(1,5): f(1,4) - f(1,5) - x(2,1,5) - x(3,1,5) = 0
 fluxo_maquina(1,6): f(1,5) - f(1,6) - x(2,1,6) - x(3,1,6) = 0
 fluxo_maquina(1,7): f(1,6) - f(1,7) - x(2,1,7) + x(3,1,4) - x(3,1,7) = 0
 fluxo_maquina(1,8): f(1,7) - f(1,8) - x(2,1,8) + x(3,1,5) - x(1,1,8)
   - x(3,1,8) = 0
 fluxo_maquina(1,9): f(1,8) - f(1,9) + x(2,1,5) - x(2,1,9) + x(3,1,6)
   - x(1,1,9) - x(3,1,9) = 0
 fluxo_maquina(1,10): f(1,9) - f(1,10) + x(2,1,6) - x(2,1,10) + x(3,1,7)
   - x(1,1,10) - x(3,1,10) = 0
 fluxo_maquina(1,11): f(1,10) - f(1,11) + x(2,1,7) - x(2,1,11) + x(3,1,8)
   - x(1,1,11) - x(3,1,11) = 0
 fluxo_maquina(1,12): f(1,11) - f(1,12) + x(2,1,8) - x(2,1,12) + x(3,1,9)
   - x(1,1,12) - x(3,1,12) = 0
 fluxo_maquina(1,13): f(1,12) - f(1,13) + x(2,1,9) - x(2,1,13) + x(1,1,8)
   + x(3,1,10) - x(1,1,13) - x(3,1,13) = 0
 fluxo_maquina(1,14): f(1,13) - f(1,14) + x(2,1,10) - x(2,1,14) + x(1,1,9)
   + x(3,1,11) - x(1,1,14) - x(3,1,14) = 0
 fluxo_maquina(1,15): f(1,14) - f(1,15) + x(2,1,11) - x(2,1,15) + x(1,1,10)
   + x(3,1,12) - x(1,1,15) - x(3,1,15) = 0
 fluxo_maquina(1,16): f(1,15) - f(1,16) + x(2,1,12) - x(2,1,16) + x(1,1,11)
   + x(3,1,13) - x(1,1,16) - x(3,1,16) = 0
 fluxo_maquina(1,17): f(1,16) - f(1,17) + x(2,1,13) - x(2,1,17) + x(1,1,12)
   + x(3,1,14) - x(1,1,17) - x(3,1,17) = 0
 fluxo_maquina(1,18): f(1,17) - f(1,18) + x(2,1,14) - x(2,1,18) + x(1,1,13)
   + x(3,1,15) - x(1,1,18) - x(3,1,18) = 0
 fluxo_maquina(1,19): f(1,18) - f(1,19) + x(2,1,15) + x(1,1,14) + x(3,1,16)
   - x(1,1,19) - x(3,1,19) = 0
 fluxo_maquina(1,20): f(1,19) - f(1,20) + x(2,1,16) + x(1,1,15) + x(3,1,17)
   - x(1,1,20) - x(3,1,20) = 0
 fluxo_maquina(1,21): f(1,20) - f(1,21) + x(2,1,17) + x(1,1,16) + x(3,1,18)
   - x(3,1,21) = 0
 fluxo_maquina(1,22): f(1,21) - f(1,22) + x(2,1,18) + x(1,1,17) + x(3,1,19)
   - x(3,1,22) = 0
 fluxo_maquina(1,23): f(1,22) - f(1,23) + x(1,1,18) + x(3,1,20) = 0
 fluxo_maquina(1,24): f(1,23) - f(1,24) + x(1,1,19) + x(3,1,21) = 0
 fluxo_maquina(1,25): f(1,24) - f(1,25) + x(1,1,20) + x(3,1,22) = 0
 fluxo_maquina(2,1): - x(1,2,1) - x(2,2,1) - x(3,2,1) + f(2,0) - f(2,1)
   = 0
 fluxo_maquina(2,2): - x(1,2,2) - x(2,2,2) - x(3,2,2) + f(2,1) - f(2,2)
   = 0
 fluxo_maquina(2,3): x(1,2,0) + x(3,2,0) - x(1,2,3) - x(2,2,3) - x(3,2,3)
   + f(2,2) - f(2,3) = 0
 fluxo_maquina(2,4): x(1,2,1) + x(3,2,1) - x(1,2,4) - x(2,2,4) - x(3,2,4)
   + f(2,3) - f(2,4) = 0
 fluxo_maquina(2,5): x(2,2,0) + x(1,2,2) + x(3,2,2) - x(1,2,5) - x(2,2,5)
   - x(3,2,5) + f(2,4) - f(2,5) = 0
 fluxo_maquina(2,6): x(2,2,1) + x(1,2,3) + x(3,2,3) - x(1,2,6) - x(2,2,6)
   - x(3,2,6) + f(2,5) - f(2,6) = 0
 fluxo_maquina(2,7): x(2,2,2) + x(1,2,4) + x(3,2,4) - x(1,2,7) - x(2,2,7)
   - x(3,2,7) + f(2,6) - f(2,7) = 0
 fluxo_maquina(2,8): x(2,2,3) + x(1,2,5) + x(3,2,5) - x(1,2,8) - x(2,2,8)
   - x(3,2,8) + f(2,7) - f(2,8) = 0
 fluxo_maquina(2,9): x(2,2,4) + x(1,2,6) + x(3,2,6) - x(1,2,9) - x(2,2,9)
   - x(3,2,9) + f(2,8) - f(2,9) = 0
 fluxo_maquina(2,10): x(2,2,5) + x(1,2,7) + x(3,2,7) - x(1,2,10)
   - x(2,2,10) - x(3,2,10) + f(2,9) - f(2,10) = 0
 fluxo_maquina(2,11): x(2,2,6) + x(1,2,8) + x(3,2,8) - x(1,2,11)
   - x(2,2,11) - x(3,2,11) + f(2,10) - f(2,11) = 0
 fluxo_maquina(2,12): x(2,2,7) + x(1,2,9) + x(3,2,9) - x(1,2,12)
   - x(2,2,12) - x(3,2,12) + f(2,11) - f(2,12) = 0
 fluxo_maquina(2,13): x(2,2,8) + x(1,2,10) + x(3,2,10) - x(2,2,13)
   - x(3,2,13) + f(2,12) - f(2,13) = 0
 fluxo_maquina(2,14): x(2,2,9) + x(1,2,11) + x(3,2,11) - x(3,2,14)
   + f(2,13) - f(2,14) = 0
 fluxo_maquina(2,15): x(2,2,10) + x(1,2,12) + x(3,2,12) - x(3,2,15)
   + f(2,14) - f(2,15) = 0
 fluxo_maquina(2,16): x(2,2,11) + x(3,2,13) - x(3,2,16) + f(2,15) - f(2,16)
   = 0
 fluxo_maquina(2,17): x(2,2,12) + x(3,2,14) - x(3,2,17) + f(2,16) - f(2,17)
   = 0
 fluxo_maquina(2,18): x(2,2,13) + x(3,2,15) - x(3,2,18) + f(2,17) - f(2,18)
   = 0
 fluxo_maquina(2,19): x(3,2,16) + f(2,18) - f(2,19) = 0
 fluxo_maquina(2,20): x(3,2,17) + f(2,19) - f(2,20) = 0
 fluxo_maquina(2,21): x(3,2,18) + f(2,20) - f(2,21) = 0
 fluxo_maquina(2,22): f(2,21) - f(2,22) = 0
 fluxo_maquina(2,23): f(2,22) - f(2,23) = 0
 fluxo_maquina(2,24): f(2,23) - f(2,24) = 0
 fluxo_maquina(2,25): f(2,24) - f(2,25) = 0
 fluxo_maquina(3,1): f(3,0) - f(3,1) = 0
 fluxo_maquina(3,2): f(3,1) - f(3,2) = 0
 fluxo_maquina(3,3): - x(1,3,3) - x(3,3,3) + f(3,2) - f(3,3) = 0
 fluxo_maquina(3,4): x(3,3,3) - x(1,3,4) - x(3,3,4) + f(3,3) - f(3,4) = 0
 fluxo_maquina(3,5): x(3,3,4) - x(1,3,5) - x(3,3,5) + f(3,4) - f(3,5) = 0
 fluxo_maquina(3,6): x(3,3,5) - x(1,3,6) - x(3,3,6) + f(3,5) - f(3,6) = 0
 fluxo_maquina(3,7): x(3,3,6) - x(1,3,7) - x(3,3,7) + f(3,6) - f(3,7) = 0
 fluxo_maquina(3,8): x(1,3,3) + x(3,3,7) - x(1,3,8) - x(3,3,8) + f(3,7)
   - f(3,8) = 0
 fluxo_maquina(3,9): x(1,3,4) + x(3,3,8) - x(1,3,9) - x(3,3,9) + f(3,8)
   - f(3,9) - x(2,3,9) = 0
 fluxo_maquina(3,10): x(1,3,5) + x(3,3,9) - x(1,3,10) - x(3,3,10) + f(3,9)
   - f(3,10) - x(2,3,10) = 0
 fluxo_maquina(3,11): x(1,3,6) + x(3,3,10) - x(1,3,11) - x(3,3,11)
   + f(3,10) - f(3,11) - x(2,3,11) = 0
 fluxo_maquina(3,12): x(1,3,7) + x(3,3,11) - x(1,3,12) - x(3,3,12)
   + x(2,3,9) + f(3,11) - f(3,12) - x(2,3,12) = 0
 fluxo_maquina(3,13): x(1,3,8) + x(3,3,12) - x(1,3,13) - x(3,3,13)
   + x(2,3,10) + f(3,12) - f(3,13) - x(2,3,13) = 0
 fluxo_maquina(3,14): x(1,3,9) + x(3,3,13) - x(1,3,14) - x(3,3,14)
   + x(2,3,11) + f(3,13) - f(3,14) - x(2,3,14) = 0
 fluxo_maquina(3,15): x(1,3,10) + x(3,3,14) - x(1,3,15) - x(3,3,15)
   + x(2,3,12) + f(3,14) - f(3,15) - x(2,3,15) = 0
 fluxo_maquina(3,16): x(1,3,11) + x(3,3,15) - x(3,3,16) + x(2,3,13)
   + f(3,15) - f(3,16) - x(2,3,16) = 0
 fluxo_maquina(3,17): x(1,3,12) + x(3,3,16) - x(3,3,17) + x(2,3,14)
   + f(3,16) - f(3,17) - x(2,3,17) = 0
 fluxo_maquina(3,18): x(1,3,13) + x(3,3,17) - x(3,3,18) + x(2,3,15)
   + f(3,17) - f(3,18) - x(2,3,18) = 0
 fluxo_maquina(3,19): x(1,3,14) + x(3,3,18) - x(3,3,19) + x(2,3,16)
   + f(3,18) - f(3,19) - x(2,3,19) = 0
 fluxo_maquina(3,20): x(1,3,15) + x(3,3,19) - x(3,3,20) + x(2,3,17)
   + f(3,19) - f(3,20) - x(2,3,20) = 0
 fluxo_maquina(3,21): x(3,3,20) - x(3,3,21) + x(2,3,18) + f(3,20) - f(3,21)
   - x(2,3,21) = 0
 fluxo_maquina(3,22): x(3,3,21) + x(2,3,19) + f(3,21) - f(3,22) - x(2,3,22)
   = 0
 fluxo_maquina(3,23): x(2,3,20) + f(3,22) - f(3,23) = 0
 fluxo_maquina(3,24): x(2,3,21) + f(3,23) - f(3,24) = 0
 fluxo_maquina(3,25): x(2,3,22) + f(3,24) - f(3,25) = 0
 inicio_espera(m1,j1,t1): x(1,2,0) + e(1,2,0) = 1
 inicio_espera(m1,j2,t1): x(2,2,0) + e(2,2,0) = 1
 inicio_espera(m1,j3,t1): x(3,2,0) + e(3,2,0) = 1
 fluxo_espera(2,1,1): e(1,2,0) - x(1,2,1) - e(1,2,1) = 0
 fluxo_espera(2,1,2): e(1,2,1) - x(1,2,2) - e(1,2,2) = 0
 fluxo_espera(2,1,3): e(1,2,2) - x(1,2,3) - e(1,2,3) = 0
 fluxo_espera(2,1,4): e(1,2,3) - x(1,2,4) - e(1,2,4) = 0
 fluxo_espera(2,1,5): e(1,2,4) - x(1,2,5) - e(1,2,5) = 0
 fluxo_espera(2,1,6): e(1,2,5) - x(1,2,6) - e(1,2,6) = 0
 fluxo_espera(2,1,7): e(1,2,6) - x(1,2,7) - e(1,2,7) = 0
 fluxo_espera(2,1,8): e(1,2,7) - x(1,2,8) - e(1,2,8) = 0
 fluxo_espera(2,1,9): e(1,2,8) - x(1,2,9) - e(1,2,9) = 0
 fluxo_espera(2,1,10): e(1,2,9) - x(1,2,10) - e(1,2,10) = 0
 fluxo_espera(2,1,11): e(1,2,10) - x(1,2,11) - e(1,2,11) = 0
 fluxo_espera(2,1,12): e(1,2,11) - x(1,2,12) - e(1,2,12) = 0
 fluxo_espera(2,2,1): e(2,2,0) - x(2,2,1) - e(2,2,1) = 0
 fluxo_espera(2,2,2): e(2,2,1) - x(2,2,2) - e(2,2,2) = 0
 fluxo_espera(2,2,3): e(2,2,2) - x(2,2,3) - e(2,2,3) = 0
 fluxo_espera(2,2,4): e(2,2,3) - x(2,2,4) - e(2,2,4) = 0
 fluxo_espera(2,2,5): e(2,2,4) - x(2,2,5) - e(2,2,5) = 0
 fluxo_espera(2,2,6): e(2,2,5) - x(2,2,6) - e(2,2,6) = 0
 fluxo_espera(2,2,7): e(2,2,6) - x(2,2,7) - e(2,2,7) = 0
 fluxo_espera(2,2,8): e(2,2,7) - x(2,2,8) - e(2,2,8) = 0
 fluxo_espera(2,2,9): e(2,2,8) - x(2,2,9) - e(2,2,9) = 0
 fluxo_espera(2,2,10): e(2,2,9) - x(2,2,10) - e(2,2,10) = 0
 fluxo_espera(2,2,11): e(2,2,10) - x(2,2,11) - e(2,2,11) = 0
 fluxo_espera(2,2,12): e(2,2,11) - x(2,2,12) - e(2,2,12) = 0
 fluxo_espera(2,2,13): e(2,2,12) - x(2,2,13) - e(2,2,13) = 0
 fluxo_espera(2,3,1): e(3,2,0) - x(3,2,1) - e(3,2,1) = 0
 fluxo_espera(2,3,2): e(3,2,1) - x(3,2,2) - e(3,2,2) = 0
 fluxo_espera(2,3,3): e(3,2,2) - x(3,2,3) - e(3,2,3) = 0
 fluxo_espera(2,3,4): e(3,2,3) - x(3,2,4) - e(3,2,4) = 0
 fluxo_espera(2,3,5): e(3,2,4) - x(3,2,5) - e(3,2,5) = 0
 fluxo_espera(2,3,6): e(3,2,5) - x(3,2,6) - e(3,2,6) = 0
 fluxo_espera(2,3,7): e(3,2,6) - x(3,2,7) - e(3,2,7) = 0
 fluxo_espera(2,3,8): e(3,2,7) - x(3,2,8) - e(3,2,8) = 0
 fluxo_espera(2,3,9): e(3,2,8) - x(3,2,9) - e(3,2,9) = 0
 fluxo_espera(2,3,10): e(3,2,9) - x(3,2,10) - e(3,2,10) = 0
 fluxo_espera(2,3,11): e(3,2,10) - x(3,2,11) - e(3,2,11) = 0
 fluxo_espera(2,3,12): e(3,2,11) - x(3,2,12) - e(3,2,12) = 0
 fluxo_espera(2,3,13): e(3,2,12) - x(3,2,13) - e(3,2,13) = 0
 fluxo_espera(2,3,14): e(3,2,13) - x(3,2,14) - e(3,2,14) = 0
 fluxo_espera(2,3,15): e(3,2,14) - x(3,2,15) - e(3,2,15) = 0
 fluxo_espera(2,3,16): e(3,2,15) - x(3,2,16) - e(3,2,16) = 0
 fluxo_espera(2,3,17): e(3,2,16) - x(3,2,17) - e(3,2,17) = 0
 fluxo_espera(2,3,18): e(3,2,17) - x(3,2,18) - e(3,2,18) = 0
 fluxo_espera(3,1,3): x(1,2,0) - x(1,3,3) - e(1,3,3) = 0
 fluxo_espera(3,1,4): x(1,2,1) + e(1,3,3) - x(1,3,4) - e(1,3,4) = 0
 fluxo_espera(3,1,5): x(1,2,2) + e(1,3,4) - x(1,3,5) - e(1,3,5) = 0
 fluxo_espera(3,1,6): x(1,2,3) + e(1,3,5) - x(1,3,6) - e(1,3,6) = 0
 fluxo_espera(3,1,7): x(1,2,4) + e(1,3,6) - x(1,3,7) - e(1,3,7) = 0
 fluxo_espera(3,1,8): x(1,2,5) + e(1,3,7) - x(1,3,8) - e(1,3,8) = 0
 fluxo_espera(3,1,9): x(1,2,6) + e(1,3,8) - x(1,3,9) - e(1,3,9) = 0
 fluxo_espera(3,1,10): x(1,2,7) + e(1,3,9) - x(1,3,10) - e(1,3,10) = 0
 fluxo_espera(3,1,11): x(1,2,8) + e(1,3,10) - x(1,3,11) - e(1,3,11) = 0
 fluxo_espera(3,1,12): x(1,2,9) + e(1,3,11) - x(1,3,12) - e(1,3,12) = 0
 fluxo_espera(3,1,13): x(1,2,10) + e(1,3,12) - x(1,3,13) - e(1,3,13) = 0
 fluxo_espera(3,1,14): x(1,2,11) + e(1,3,13) - x(1,3,14) - e(1,3,14) = 0
 fluxo_espera(3,1,15): x(1,2,12) + e(1,3,14) - x(1,3,15) - e(1,3,15) = 0
 fluxo_espera(1,2,5): x(2,2,0) - x(2,1,5) - e(2,1,5) = 0
 fluxo_espera(1,2,6): x(2,2,1) + e(2,1,5) - x(2,1,6) - e(2,1,6) = 0
 fluxo_espera(1,2,7): x(2,2,2) + e(2,1,6) - x(2,1,7) - e(2,1,7) = 0
 fluxo_espera(1,2,8): x(2,2,3) + e(2,1,7) - x(2,1,8) - e(2,1,8) = 0
 fluxo_espera(1,2,9): x(2,2,4) + e(2,1,8) - x(2,1,9) - e(2,1,9) = 0
 fluxo_espera(1,2,10): x(2,2,5) + e(2,1,9) - x(2,1,10) - e(2,1,10) = 0
 fluxo_espera(1,2,11): x(2,2,6) + e(2,1,10) - x(2,1,11) - e(2,1,11) = 0
 fluxo_espera(1,2,12): x(2,2,7) + e(2,1,11) - x(2,1,12) - e(2,1,12) = 0
 fluxo_espera(1,2,13): x(2,2,8) + e(2,1,12) - x(2,1,13) - e(2,1,13) = 0
 fluxo_espera(1,2,14): x(2,2,9) + e(2,1,13) - x(2,1,14) - e(2,1,14) = 0
 fluxo_espera(1,2,15): x(2,2,10) + e(2,1,14) - x(2,1,15) - e(2,1,15) = 0
 fluxo_espera(1,2,16): x(2,2,11) + e(2,1,15) - x(2,1,16) - e(2,1,16) = 0
 fluxo_espera(1,2,17): x(2,2,12) + e(2,1,16) - x(2,1,17) - e(2,1,17) = 0
 fluxo_espera(1,2,18): x(2,2,13) + e(2,1,17) - x(2,1,18) - e(2,1,18) = 0
 fluxo_espera(3,3,3): x(3,2,0) - x(3,3,3) - e(3,3,3) = 0
 fluxo_espera(3,3,4): x(3,2,1) + e(3,3,3) - x(3,3,4) - e(3,3,4) = 0
 fluxo_espera(3,3,5): x(3,2,2) + e(3,3,4) - x(3,3,5) - e(3,3,5) = 0
 fluxo_espera(3,3,6): x(3,2,3) + e(3,3,5) - x(3,3,6) - e(3,3,6) = 0
 fluxo_espera(3,3,7): x(3,2,4) + e(3,3,6) - x(3,3,7) - e(3,3,7) = 0
 fluxo_espera(3,3,8): x(3,2,5) + e(3,3,7) - x(3,3,8) - e(3,3,8) = 0
 fluxo_espera(3,3,9): x(3,2,6) + e(3,3,8) - x(3,3,9) - e(3,3,9) = 0
 fluxo_espera(3,3,10): x(3,2,7) + e(3,3,9) - x(3,3,10) - e(3,3,10) = 0
 fluxo_espera(3,3,11): x(3,2,8) + e(3,3,10) - x(3,3,11) - e(3,3,11) = 0
 fluxo_espera(3,3,12): x(3,2,9) + e(3,3,11) - x(3,3,12) - e(3,3,12) = 0
 fluxo_espera(3,3,13): x(3,2,10) + e(3,3,12) - x(3,3,13) - e(3,3,13) = 0
 fluxo_espera(3,3,14): x(3,2,11) + e(3,3,13) - x(3,3,14) - e(3,3,14) = 0
 fluxo_espera(3,3,15): x(3,2,12) + e(3,3,14) - x(3,3,15) - e(3,3,15) = 0
 fluxo_espera(3,3,16): x(3,2,13) + e(3,3,15) - x(3,3,16) - e(3,3,16) = 0
 fluxo_espera(3,3,17): x(3,2,14) + e(3,3,16) - x(3,3,17) - e(3,3,17) = 0
 fluxo_espera(3,3,18): x(3,2,15) + e(3,3,17) - x(3,3,18) - e(3,3,18) = 0
 fluxo_espera(3,3,19): x(3,2,16) + e(3,3,18) - x(3,3,19) - e(3,3,19) = 0
 fluxo_espera(3,3,20): x(3,2,17) + e(3,3,19) - x(3,3,20) - e(3,3,20) = 0
 fluxo_espera(3,3,21): x(3,2,18) + e(3,3,20) - x(3,3,21) - e(3,3,21) = 0
 fluxo_espera(1,1,8): x(1,3,3) - x(1,1,8) - e(1,1,8) = 0
 fluxo_espera(1,1,9): x(1,3,4) + e(1,1,8) - x(1,1,9) - e(1,1,9) = 0
 fluxo_espera(1,1,10): x(1,3,5) + e(1,1,9) - x(1,1,10) - e(1,1,10) = 0
 fluxo_espera(1,1,11): x(1,3,6) + e(1,1,10) - x(1,1,11) - e(1,1,11) = 0
 fluxo_espera(1,1,12): x(1,3,7) + e(1,1,11) - x(1,1,12) - e(1,1,12) = 0
 fluxo_espera(1,1,13): x(1,3,8) + e(1,1,12) - x(1,1,13) - e(1,1,13) = 0
 fluxo_espera(1,1,14): x(1,3,9) + e(1,1,13) - x(1,1,14) - e(1,1,14) = 0
 fluxo_espera(1,1,15): x(1,3,10) + e(1,1,14) - x(1,1,15) - e(1,1,15) = 0
 fluxo_espera(1,1,16): x(1,3,11) + e(1,1,15) - x(1,1,16) - e(1,1,16) = 0
 fluxo_espera(1,1,17): x(1,3,12) + e(1,1,16) - x(1,1,17) - e(1,1,17) = 0
 fluxo_espera(1,1,18): x(1,3,13) + e(1,1,17) - x(1,1,18) - e(1,1,18) = 0
 fluxo_espera(1,1,19): x(1,3,14) + e(1,1,18) - x(1,1,19) - e(1,1,19) = 0
 fluxo_espera(1,1,20): x(1,3,15) + e(1,1,19) - x(1,1,20) - e(1,1,20) = 0
 fluxo_espera(3,2,9): x(2,1,5) - x(2,3,9) - e(2,3,9) = 0
 fluxo_espera(3,2,10): x(2,1,6) + e(2,3,9) - x(2,3,10) - e(2,3,10) = 0
 fluxo_espera(3,2,11): x(2,1,7) + e(2,3,10) - x(2,3,11) - e(2,3,11) = 0
 fluxo_espera(3,2,12): x(2,1,8) + e(2,3,11) - x(2,3,12) - e(2,3,12) = 0
 fluxo_espera(3,2,13): x(2,1,9) + e(2,3,12) - x(2,3,13) - e(2,3,13) = 0
 fluxo_espera(3,2,14): x(2,1,10) + e(2,3,13) - x(2,3,14) - e(2,3,14) = 0
 fluxo_espera(3,2,15): x(2,1,11) + e(2,3,14) - x(2,3,15) - e(2,3,15) = 0
 fluxo_espera(3,2,16): x(2,1,12) + e(2,3,15) - x(2,3,16) - e(2,3,16) = 0
 fluxo_espera(3,2,17): x(2,1,13) + e(2,3,16) - x(2,3,17) - e(2,3,17) = 0
 fluxo_espera(3,2,18): x(2,1,14) + e(2,3,17) - x(2,3,18) - e(2,3,18) = 0
 fluxo_espera(3,2,19): x(2,1,15) + e(2,3,18) - x(2,3,19) - e(2,3,19) = 0
 fluxo_espera(3,2,20): x(2,1,16) + e(2,3,19) - x(2,3,20) - e(2,3,20) = 0
 fluxo_espera(3,2,21): x(2,1,17) + e(2,3,20) - x(2,3,21) - e(2,3,21) = 0
 fluxo_espera(3,2,22): x(2,1,18) + e(2,3,21) - x(2,3,22) - e(2,3,22) = 0
 fluxo_espera(1,3,4): x(3,3,3) - x(3,1,4) - e(3,1,4) = 0
 fluxo_espera(1,3,5): x(3,3,4) + e(3,1,4) - x(3,1,5) - e(3,1,5) = 0
 fluxo_espera(1,3,6): x(3,3,5) + e(3,1,5) - x(3,1,6) - e(3,1,6) = 0
 fluxo_espera(1,3,7): x(3,3,6) + e(3,1,6) - x(3,1,7) - e(3,1,7) = 0
 fluxo_espera(1,3,8): x(3,3,7) + e(3,1,7) - x(3,1,8) - e(3,1,8) = 0
 fluxo_espera(1,3,9): x(3,3,8) + e(3,1,8) - x(3,1,9) - e(3,1,9) = 0
 fluxo_espera(1,3,10): x(3,3,9) + e(3,1,9) - x(3,1,10) - e(3,1,10) = 0
 fluxo_espera(1,3,11): x(3,3,10) + e(3,1,10) - x(3,1,11) - e(3,1,11) = 0
 fluxo_espera(1,3,12): x(3,3,11) + e(3,1,11) - x(3,1,12) - e(3,1,12) = 0
 fluxo_espera(1,3,13): x(3,3,12) + e(3,1,12) - x(3,1,13) - e(3,1,13) = 0
 fluxo_espera(1,3,14): x(3,3,13) + e(3,1,13) - x(3,1,14) - e(3,1,14) = 0
 fluxo_espera(1,3,15): x(3,3,14) + e(3,1,14) - x(3,1,15) - e(3,1,15) = 0
 fluxo_espera(1,3,16): x(3,3,15) + e(3,1,15) - x(3,1,16) - e(3,1,16) = 0
 fluxo_espera(1,3,17): x(3,3,16) + e(3,1,16) - x(3,1,17) - e(3,1,17) = 0
 fluxo_espera(1,3,18): x(3,3,17) + e(3,1,17) - x(3,1,18) - e(3,1,18) = 0
 fluxo_espera(1,3,19): x(3,3,18) + e(3,1,18) - x(3,1,19) - e(3,1,19) = 0
 fluxo_espera(1,3,20): x(3,3,19) + e(3,1,19) - x(3,1,20) - e(3,1,20) = 0
 fluxo_espera(1,3,21): x(3,3,20) + e(3,1,20) - x(3,1,21) - e(3,1,21) = 0
 fluxo_espera(1,3,22): x(3,3,21) + e(3,1,21) - x(3,1,22) - e(3,1,22) = 0
 ultimo_tempo(2,1): e(1,2,11) - x(1,2,12) = 0
 ultimo_tempo(2,2): e(2,2,12) - x(2,2,13) = 0
 ultimo_tempo(2,3): e(3,2,17) - x(3,2,18) = 0
 ultimo_tempo(3,1): x(1,2,12) + e(1,3,14) - x(1,3,15) = 0
 ultimo_tempo(1,2): x(2,2,13) + e(2,1,17) - x(2,1,18) = 0
 ultimo_tempo(3,3): x(3,2,18) + e(3,3,20) - x(3,3,21) = 0
 ultimo_tempo(1,1): x(1,3,15) + e(1,1,19) - x(1,1,20) = 0
 ultimo_tempo(3,2): x(2,1,18) + e(2,3,21) - x(2,3,22) = 0
 ultimo_tempo(1,3): x(3,3,21) + e(3,1,21) - x(3,1,22) = 0
 fim(1): - 13 x(1,1,8) - 14 x(1,1,9) - 15 x(1,1,10) - 16 x(1,1,11)
   - 17 x(1,1,12) - 18 x(1,1,13) - 19 x(1,1,14) - 20 x(1,1,15)
   - 21 x(1,1,16) - 22 x(1,1,17) - 23 x(1,1,18) - 24 x(1,1,19)
   - 25 x(1,1,20) + C >= 0
 fim(2): - 12 x(2,3,9) - 13 x(2,3,10) - 14 x(2,3,11) - 15 x(2,3,12)
   - 16 x(2,3,13) - 17 x(2,3,14) - 18 x(2,3,15) - 19 x(2,3,16)
   - 20 x(2,3,17) - 21 x(2,3,18) - 22 x(2,3,19) - 23 x(2,3,20)
   - 24 x(2,3,21) - 25 x(2,3,22) + C >= 0
 fim(3): - 7 x(3,1,4) - 8 x(3,1,5) - 9 x(3,1,6) - 10 x(3,1,7) - 11 x(3,1,8)
   - 12 x(3,1,9) - 13 x(3,1,10) - 14 x(3,1,11) - 15 x(3,1,12)
   - 16 x(3,1,13) - 17 x(3,1,14) - 18 x(3,1,15) - 19 x(3,1,16)
   - 20 x(3,1,17) - 21 x(3,1,18) - 22 x(3,1,19) - 23 x(3,1,20)
   - 24 x(3,1,21) - 25 x(3,1,22) + C >= 0
 cortes(0): x(1,2,0) + x(2,2,0) + x(1,2,1) + x(1,2,3) + x(1,2,4) <= 1
 cortes(1): x(2,1,14) + x(3,1,12) + x(1,1,13) + x(3,1,13) + x(1,1,14)
   + x(3,1,14) + x(3,1,15) + x(3,1,16) + x(3,1,17) <= 1
 cortes(2): x(2,1,14) + x(2,1,15) + x(1,1,13) + x(3,1,13) + x(1,1,14)
   + x(3,1,14) + x(3,1,15) + x(3,1,16) + x(3,1,17) <= 1
 cortes(3): x(2,1,13) + x(2,1,14) + x(2,1,15) + x(1,1,12) + x(1,1,13)
   + x(3,1,13) + x(1,1,14) + x(3,1,14) + x(3,1,15) + x(3,1,16) <= 1
 cortes(4): x(2,1,13) + x(2,1,14) + x(1,1,12) + x(3,1,12) + x(1,1,13)
   + x(3,1,13) + x(1,1,14) + x(3,1,14) + x(3,1,15) + x(3,1,16) <= 1
 cortes(5): x(2,1,5) + x(2,1,6) + x(2,1,7) + x(2,1,8) + x(2,1,9)
   + x(2,1,11) + x(2,1,12) + x(1,1,8) <= 1
 cortes(6): x(2,1,5) + x(2,1,6) + x(2,1,7) + x(2,1,8) + x(2,1,9) + x(3,1,7)
   + x(1,1,8) <= 1
 cortes(7): x(2,1,11) + x(2,1,12) + x(2,1,13) + x(1,1,9) + x(1,1,11)
   + x(1,1,12) + x(3,1,12) + x(1,1,13) + x(3,1,13) + x(1,1,14) <= 1
 cortes(8): x(2,1,11) + x(2,1,12) + x(1,1,8) + x(1,1,9) + x(1,1,11)
   + x(1,1,12) + x(3,1,12) + x(1,1,13) + x(1,1,14) <= 1
Bounds
 C <= 25
Binaries
 f(1,0) x(1,2,0) e(1,2,0) x(2,2,0) e(2,2,0) x(3,2,0) e(3,2,0) f(1,1)
 x(1,2,1) e(1,2,1) x(2,2,1) e(2,2,1) x(3,2,1) e(3,2,1) f(1,2) x(1,2,2)
 e(1,2,2) x(2,2,2) e(2,2,2) x(3,2,2) e(3,2,2) f(1,3) x(1,2,3) e(1,2,3)
 x(2,2,3) e(2,2,3) x(3,2,3) e(3,2,3) f(1,4) x(1,2,4) e(1,2,4) x(2,2,4)
 e(2,2,4) x(3,2,4) e(3,2,4) f(1,5) x(1,2,5) e(1,2,5) x(2,2,5) e(2,2,5)
 x(3,2,5) e(3,2,5) f(1,6) x(1,2,6) e(1,2,6) x(2,2,6) e(2,2,6) x(3,2,6)
 e(3,2,6) f(1,7) x(1,2,7) e(1,2,7) x(2,2,7) e(2,2,7) x(3,2,7) e(3,2,7)
 f(1,8) x(1,2,8) e(1,2,8) x(2,2,8) e(2,2,8) x(3,2,8) e(3,2,8) f(1,9)
 x(1,2,9) e(1,2,9) x(2,2,9) e(2,2,9) x(3,2,9) e(3,2,9) f(1,10) x(1,2,10)
 e(1,2,10) x(2,2,10) e(2,2,10) x(3,2,10) e(3,2,10) f(1,11) x(1,2,11)
 e(1,2,11) x(2,2,11) e(2,2,11) x(3,2,11) e(3,2,11) f(1,12) x(1,2,12)
 e(1,2,12) x(2,2,12) e(2,2,12) x(3,2,12) e(3,2,12) f(1,13) x(2,2,13)
 e(2,2,13) x(3,2,13) e(3,2,13) f(1,14) x(3,2,14) e(3,2,14) f(1,15)
 x(3,2,15) e(3,2,15) f(1,16) x(3,2,16) e(3,2,16) f(1,17) x(3,2,17)
 e(3,2,17) f(1,18) x(3,2,18) e(3,2,18) f(1,19) f(1,20) f(1,21) f(1,22)
 f(1,23) f(1,24) f(1,25) f(2,0) f(2,1) f(2,2) f(2,3) x(1,3,3) e(1,3,3)
 x(3,3,3) e(3,3,3) f(2,4) x(1,3,4) e(1,3,4) x(3,3,4) e(3,3,4) f(2,5)
 x(1,3,5) e(1,3,5) x(2,1,5) e(2,1,5) x(3,3,5) e(3,3,5) f(2,6) x(1,3,6)
 e(1,3,6) x(2,1,6) e(2,1,6) x(3,3,6) e(3,3,6) f(2,7) x(1,3,7) e(1,3,7)
 x(2,1,7) e(2,1,7) x(3,3,7) e(3,3,7) f(2,8) x(1,3,8) e(1,3,8) x(2,1,8)
 e(2,1,8) x(3,3,8) e(3,3,8) f(2,9) x(1,3,9) e(1,3,9) x(2,1,9) e(2,1,9)
 x(3,3,9) e(3,3,9) f(2,10) x(1,3,10) e(1,3,10) x(2,1,10) e(2,1,10)
 x(3,3,10) e(3,3,10) f(2,11) x(1,3,11) e(1,3,11) x(2,1,11) e(2,1,11)
 x(3,3,11) e(3,3,11) f(2,12) x(1,3,12) e(1,3,12) x(2,1,12) e(2,1,12)
 x(3,3,12) e(3,3,12) f(2,13) x(1,3,13) e(1,3,13) x(2,1,13) e(2,1,13)
 x(3,3,13) e(3,3,13) f(2,14) x(1,3,14) e(1,3,14) x(2,1,14) e(2,1,14)
 x(3,3,14) e(3,3,14) f(2,15) x(1,3,15) e(1,3,15) x(2,1,15) e(2,1,15)
 x(3,3,15) e(3,3,15) f(2,16) x(2,1,16) e(2,1,16) x(3,3,16) e(3,3,16)
 f(2,17) x(2,1,17) e(2,1,17) x(3,3,17) e(3,3,17) f(2,18) x(2,1,18)
 e(2,1,18) x(3,3,18) e(3,3,18) f(2,19) x(3,3,19) e(3,3,19) f(2,20)
 x(3,3,20) e(3,3,20) f(2,21) x(3,3,21) e(3,3,21) f(2,22) f(2,23) f(2,24)
 f(2,25) f(3,0) f(3,1) f(3,2) f(3,3) f(3,4) x(3,1,4) e(3,1,4) f(3,5)
 x(3,1,5) e(3,1,5) f(3,6) x(3,1,6) e(3,1,6) f(3,7) x(3,1,7) e(3,1,7) f(3,8)
 x(1,1,8) e(1,1,8) x(3,1,8) e(3,1,8) f(3,9) x(1,1,9) e(1,1,9) x(2,3,9)
 e(2,3,9) x(3,1,9) e(3,1,9) f(3,10) x(1,1,10) e(1,1,10) x(2,3,10) e(2,3,10)
 x(3,1,10) e(3,1,10) f(3,11) x(1,1,11) e(1,1,11) x(2,3,11) e(2,3,11)
 x(3,1,11) e(3,1,11) f(3,12) x(1,1,12) e(1,1,12) x(2,3,12) e(2,3,12)
 x(3,1,12) e(3,1,12) f(3,13) x(1,1,13) e(1,1,13) x(2,3,13) e(2,3,13)
 x(3,1,13) e(3,1,13) f(3,14) x(1,1,14) e(1,1,14) x(2,3,14) e(2,3,14)
 x(3,1,14) e(3,1,14) f(3,15) x(1,1,15) e(1,1,15) x(2,3,15) e(2,3,15)
 x(3,1,15) e(3,1,15) f(3,16) x(1,1,16) e(1,1,16) x(2,3,16) e(2,3,16)
 x(3,1,16) e(3,1,16) f(3,17) x(1,1,17) e(1,1,17) x(2,3,17) e(2,3,17)
 x(3,1,17) e(3,1,17) f(3,18) x(1,1,18) e(1,1,18) x(2,3,18) e(2,3,18)
 x(3,1,18) e(3,1,18) f(3,19) x(1,1,19) e(1,1,19) x(2,3,19) e(2,3,19)
 x(3,1,19) e(3,1,19) f(3,20) x(1,1,20) e(1,1,20) x(2,3,20) e(2,3,20)
 x(3,1,20) e(3,1,20) f(3,21) x(2,3,21) e(2,3,21) x(3,1,21) e(3,1,21)
 f(3,22) x(2,3,22) e(2,3,22) x(3,1,22) e(3,1,22) f(3,23) f(3,24) f(3,25)
Generals
 C
End
